
Gurobi 6.5.0 (linux64) logging started Sun Mar 20 20:38:13 2016


Gurobi 6.5.0 (linux64) logging started Sun Mar 20 20:42:56 2016


Gurobi 6.5.0 (linux64) logging started Sun Mar 20 20:45:33 2016


Gurobi 6.5.0 (linux64) logging started Sun Mar 20 20:46:48 2016


Gurobi 6.5.0 (linux64) logging started Sun Mar 20 21:50:58 2016


Gurobi 6.5.0 (linux64) logging started Tue May 17 22:33:37 2016


Gurobi 6.5.0 (linux64) logging started Tue May 17 22:47:29 2016


Gurobi 6.5.0 (linux64) logging started Tue May 17 22:52:20 2016


Gurobi 6.5.0 (linux64) logging started Tue May 17 22:53:07 2016


Gurobi 6.5.0 (linux64) logging started Sat May 21 11:11:18 2016


Gurobi 6.5.0 (linux64) logging started Sat May 21 15:30:04 2016


Gurobi 6.5.0 (linux64) logging started Sat May 21 15:38:35 2016


Gurobi 6.5.0 (linux64) logging started Sat May 21 15:43:46 2016


Gurobi 6.5.0 (linux64) logging started Sat May 21 15:50:45 2016


Gurobi 6.5.0 (linux64) logging started Mon May 23 13:39:41 2016


Gurobi 6.5.0 (linux64) logging started Mon May 23 13:40:57 2016


Gurobi 6.5.0 (linux64) logging started Mon May 23 13:41:05 2016


Gurobi 6.5.0 (linux64) logging started Mon May 23 13:41:12 2016

